p edge 500 3500
e 1 24
e 1 43
e 1 118
e 1 195
e 1 233
e 1 262
e 1 361
e 2 82
e 2 191
e 2 262
e 2 310
e 2 350
e 2 426
e 2 497
e 3 25
e 3 127
e 3 178
e 3 191
e 3 235
e 3 309
e 3 368
e 4 58
e 4 115
e 4 161
e 4 169
e 4 206
e 4 313
e 4 359
e 5 8
e 5 101
e 5 227
e 5 347
e 5 387
e 5 417
e 5 495
e 6 30
e 6 53
e 6 79
e 6 148
e 6 188
e 6 291
e 6 447
e 7 52
e 7 81
e 7 94
e 7 132
e 7 246
e 7 358
e 7 471
e 8 13
e 8 128
e 8 215
e 8 265
e 8 313
e 8 356
e 8 387
e 9 58
e 9 91
e 9 111
e 9 190
e 9 413
e 9 470
e 9 480
e 10 121
e 10 142
e 10 275
e 10 356
e 10 399
e 10 434
e 10 488
e 11 67
e 11 240
e 11 271
e 11 285
e 11 339
e 11 357
e 11 389
e 12 107
e 12 206
e 12 238
e 12 261
e 12 350
e 12 378
e 12 418
e 13 19
e 13 60
e 13 218
e 13 236
e 13 284
e 13 374
e 13 446
e 14 97
e 14 108
e 14 138
e 14 290
e 14 374
e 14 459
e 14 484
e 15 101
e 15 230
e 15 258
e 15 315
e 15 454
e 15 472
e 15 479
e 16 26
e 16 75
e 16 119
e 16 162
e 16 389
e 16 439
e 16 460
e 17 158
e 17 182
e 17 234
e 17 271
e 17 359
e 17 384
e 17 494
e 18 70
e 18 123
e 18 200
e 18 340
e 18 364
e 18 418
e 18 444
e 19 174
e 19 183
e 19 295
e 19 348
e 19 432
e 19 463
e 19 494
e 20 22
e 20 58
e 20 116
e 20 122
e 20 292
e 20 293
e 20 391
e 21 75
e 21 158
e 21 177
e 21 232
e 21 448
e 21 452
e 21 492
e 22 31
e 22 38
e 22 55
e 22 99
e 22 213
e 22 241
e 22 326
e 23 3
e 23 17
e 23 17
e 23 75
e 23 82
e 23 140
e 23 232
e 24 22
e 24 81
e 24 163
e 24 219
e 24 297
e 24 339
e 24 405
e 25 29
e 25 186
e 25 313
e 25 363
e 25 380
e 25 471
e 25 478
e 26 37
e 26 105
e 26 177
e 26 208
e 26 260
e 26 405
e 26 484
e 27 128
e 27 245
e 27 358
e 27 412
e 27 424
e 27 451
e 27 500
e 28 50
e 28 61
e 28 64
e 28 106
e 28 237
e 28 275
e 28 319
e 29 212
e 29 245
e 29 292
e 29 306
e 29 376
e 29 379
e 29 435
e 30 90
e 30 115
e 30 269
e 30 419
e 30 456
e 30 492
e 30 494
e 31 94
e 31 218
e 31 227
e 31 306
e 31 323
e 31 383
e 31 483
e 32 44
e 32 75
e 32 94
e 32 127
e 32 254
e 32 408
e 32 487
e 33 75
e 33 180
e 33 214
e 33 263
e 33 315
e 33 378
e 33 467
e 34 89
e 34 124
e 34 211
e 34 233
e 34 276
e 34 295
e 34 420
e 35 18
e 35 138
e 35 154
e 35 192
e 35 236
e 35 347
e 35 376
e 36 6
e 36 74
e 36 211
e 36 292
e 36 329
e 36 426
e 36 444
e 37 19
e 37 33
e 37 56
e 37 91
e 37 218
e 37 337
e 37 464
e 38 72
e 38 131
e 38 134
e 38 162
e 38 253
e 38 359
e 38 405
e 39 74
e 39 105
e 39 186
e 39 290
e 39 306
e 39 352
e 39 354
e 40 4
e 40 7
e 40 142
e 40 196
e 40 251
e 40 369
e 40 486
e 41 121
e 41 140
e 41 227
e 41 264
e 41 403
e 41 450
e 41 468
e 42 37
e 42 61
e 42 97
e 42 118
e 42 178
e 42 366
e 42 482
e 43 19
e 43 33
e 43 99
e 43 212
e 43 271
e 43 343
e 43 456
e 44 173
e 44 197
e 44 271
e 44 322
e 44 347
e 44 380
e 44 485
e 45 41
e 45 73
e 45 235
e 45 277
e 45 284
e 45 399
e 45 428
e 46 31
e 46 64
e 46 74
e 46 109
e 46 331
e 46 348
e 46 451
e 47 23
e 47 48
e 47 60
e 47 83
e 47 215
e 47 314
e 47 425
e 48 165
e 48 205
e 48 233
e 48 399
e 48 436
e 48 444
e 48 455
e 49 141
e 49 160
e 49 198
e 49 263
e 49 263
e 49 279
e 49 487
e 50 42
e 50 184
e 50 224
e 50 266
e 50 273
e 50 325
e 50 349
e 51 96
e 51 123
e 51 155
e 51 322
e 51 336
e 51 366
e 51 458
e 52 172
e 52 176
e 52 202
e 52 219
e 52 248
e 52 270
e 52 277
e 53 154
e 53 204
e 53 229
e 53 392
e 53 408
e 53 434
e 53 460
e 54 85
e 54 221
e 54 298
e 54 307
e 54 309
e 54 335
e 54 360
e 55 17
e 55 53
e 55 199
e 55 216
e 55 377
e 55 399
e 55 492
e 56 7
e 56 11
e 56 17
e 56 60
e 56 172
e 56 190
e 56 245
e 57 1
e 57 40
e 57 110
e 57 110
e 57 199
e 57 225
e 57 379
e 58 46
e 58 54
e 58 82
e 58 115
e 58 339
e 58 427
e 58 490
e 59 33
e 59 68
e 59 148
e 59 224
e 59 232
e 59 288
e 59 381
e 60 91
e 60 123
e 60 180
e 60 282
e 60 351
e 60 376
e 60 484
e 61 132
e 61 255
e 61 314
e 61 351
e 61 358
e 61 407
e 61 495
e 62 82
e 62 104
e 62 182
e 62 221
e 62 267
e 62 434
e 62 483
e 63 2
e 63 182
e 63 297
e 63 326
e 63 405
e 63 416
e 63 488
e 64 33
e 64 52
e 64 135
e 64 223
e 64 298
e 64 393
e 64 476
e 65 7
e 65 58
e 65 96
e 65 182
e 65 209
e 65 252
e 65 416
e 66 155
e 66 277
e 66 298
e 66 374
e 66 463
e 66 484
e 66 500
e 67 22
e 67 88
e 67 310
e 67 332
e 67 383
e 67 433
e 67 478
e 68 64
e 68 183
e 68 186
e 68 212
e 68 267
e 68 361
e 68 423
e 69 84
e 69 87
e 69 256
e 69 286
e 69 315
e 69 431
e 69 491
e 70 26
e 70 29
e 70 117
e 70 321
e 70 352
e 70 393
e 70 477
e 71 26
e 71 119
e 71 137
e 71 181
e 71 340
e 71 361
e 71 491
e 72 74
e 72 83
e 72 122
e 72 144
e 72 311
e 72 338
e 72 429
e 73 71
e 73 226
e 73 316
e 73 321
e 73 389
e 73 438
e 73 456
e 74 9
e 74 43
e 74 158
e 74 223
e 74 284
e 74 351
e 74 354
e 75 72
e 75 98
e 75 127
e 75 152
e 75 270
e 75 296
e 75 328
e 76 29
e 76 140
e 76 150
e 76 389
e 76 399
e 76 411
e 76 469
e 77 78
e 77 111
e 77 200
e 77 361
e 77 391
e 77 394
e 77 477
e 78 53
e 78 88
e 78 100
e 78 125
e 78 158
e 78 278
e 78 432
e 79 18
e 79 45
e 79 67
e 79 142
e 79 236
e 79 369
e 79 453
e 80 21
e 80 185
e 80 196
e 80 267
e 80 277
e 80 299
e 80 306
e 81 29
e 81 94
e 81 117
e 81 279
e 81 309
e 81 429
e 81 455
e 82 1
e 82 49
e 82 56
e 82 173
e 82 198
e 82 275
e 82 446
e 83 128
e 83 284
e 83 326
e 83 383
e 83 413
e 83 456
e 83 498
e 84 65
e 84 194
e 84 335
e 84 335
e 84 422
e 84 422
e 84 440
e 85 160
e 85 262
e 85 263
e 85 355
e 85 442
e 85 458
e 85 486
e 86 24
e 86 42
e 86 163
e 86 217
e 86 351
e 86 353
e 86 473
e 87 16
e 87 155
e 87 174
e 87 218
e 87 368
e 87 400
e 87 483
e 88 7
e 88 264
e 88 291
e 88 291
e 88 352
e 88 365
e 88 492
e 89 38
e 89 38
e 89 60
e 89 173
e 89 329
e 89 360
e 89 372
e 90 91
e 90 243
e 90 281
e 90 342
e 90 357
e 90 471
e 90 488
e 91 12
e 91 18
e 91 70
e 91 166
e 91 353
e 91 362
e 91 491
e 92 7
e 92 84
e 92 113
e 92 139
e 92 223
e 92 301
e 92 352
e 93 33
e 93 105
e 93 155
e 93 168
e 93 365
e 93 396
e 93 490
e 94 39
e 94 142
e 94 180
e 94 353
e 94 376
e 94 413
e 94 470
e 95 32
e 95 137
e 95 150
e 95 171
e 95 261
e 95 345
e 95 457
e 96 19
e 96 184
e 96 315
e 96 315
e 96 327
e 96 387
e 96 466
e 97 36
e 97 40
e 97 122
e 97 153
e 97 394
e 97 446
e 97 470
e 98 110
e 98 132
e 98 174
e 98 202
e 98 265
e 98 290
e 98 291
e 99 49
e 99 236
e 99 296
e 99 314
e 99 334
e 99 378
e 99 481
e 100 47
e 100 156
e 100 199
e 100 294
e 100 356
e 100 450
e 100 469
e 101 157
e 101 172
e 101 178
e 101 287
e 101 324
e 101 434
e 101 461
e 102 141
e 102 178
e 102 182
e 102 246
e 102 262
e 102 359
e 102 485
e 103 51
e 103 76
e 103 101
e 103 324
e 103 344
e 103 455
e 103 491
e 104 43
e 104 107
e 104 125
e 104 160
e 104 290
e 104 365
e 104 420
e 105 52
e 105 130
e 105 239
e 105 345
e 105 384
e 105 470
e 105 477
e 106 20
e 106 81
e 106 134
e 106 305
e 106 344
e 106 457
e 106 482
e 107 12
e 107 123
e 107 167
e 107 193
e 107 413
e 107 468
e 107 476
e 108 3
e 108 95
e 108 132
e 108 175
e 108 230
e 108 369
e 108 403
e 109 184
e 109 208
e 109 217
e 109 219
e 109 330
e 109 378
e 109 488
e 110 10
e 110 63
e 110 74
e 110 126
e 110 434
e 110 458
e 110 473
e 111 142
e 111 154
e 111 227
e 111 298
e 111 419
e 111 448
e 111 497
e 112 225
e 112 306
e 112 394
e 112 449
e 112 475
e 112 481
e 112 486
e 113 30
e 113 31
e 113 60
e 113 63
e 113 161
e 113 394
e 113 399
e 114 11
e 114 13
e 114 142
e 114 220
e 114 281
e 114 403
e 114 425
e 115 84
e 115 141
e 115 190
e 115 209
e 115 227
e 115 290
e 115 481
e 116 12
e 116 58
e 116 211
e 116 224
e 116 432
e 116 439
e 116 494
e 117 114
e 117 139
e 117 191
e 117 221
e 117 392
e 117 406
e 117 425
e 118 168
e 118 172
e 118 181
e 118 271
e 118 301
e 118 330
e 118 422
e 119 25
e 119 89
e 119 96
e 119 155
e 119 244
e 119 380
e 119 400
e 120 22
e 120 70
e 120 211
e 120 233
e 120 374
e 120 387
e 120 470
e 121 16
e 121 31
e 121 88
e 121 95
e 121 164
e 121 280
e 121 434
e 122 53
e 122 150
e 122 243
e 122 340
e 122 352
e 122 465
e 122 500
e 123 16
e 123 87
e 123 187
e 123 331
e 123 350
e 123 410
e 123 416
e 124 12
e 124 134
e 124 135
e 124 223
e 124 382
e 124 388
e 124 405
e 125 20
e 125 144
e 125 243
e 125 274
e 125 288
e 125 355
e 125 414
e 126 64
e 126 125
e 126 140
e 126 151
e 126 245
e 126 260
e 126 419
e 127 206
e 127 213
e 127 234
e 127 251
e 127 270
e 127 354
e 127 405
e 128 67
e 128 88
e 128 235
e 128 300
e 128 316
e 128 320
e 128 436
e 129 170
e 129 303
e 129 338
e 129 354
e 129 365
e 129 451
e 129 488
e 130 38
e 130 63
e 130 90
e 130 111
e 130 205
e 130 206
e 130 461
e 131 18
e 131 58
e 131 317
e 131 330
e 131 393
e 131 404
e 131 412
e 132 23
e 132 80
e 132 106
e 132 120
e 132 322
e 132 362
e 132 444
e 133 25
e 133 29
e 133 46
e 133 201
e 133 379
e 133 383
e 133 448
e 134 26
e 134 52
e 134 90
e 134 288
e 134 354
e 134 387
e 134 400
e 135 7
e 135 37
e 135 108
e 135 295
e 135 427
e 135 429
e 135 449
e 136 93
e 136 165
e 136 321
e 136 398
e 136 418
e 136 422
e 136 481
e 137 124
e 137 167
e 137 355
e 137 434
e 137 438
e 137 495
e 137 498
e 138 18
e 138 62
e 138 210
e 138 313
e 138 318
e 138 432
e 138 485
e 139 70
e 139 109
e 139 157
e 139 166
e 139 246
e 139 349
e 139 496
e 140 60
e 140 70
e 140 172
e 140 261
e 140 296
e 140 302
e 140 423
e 141 72
e 141 153
e 141 177
e 141 244
e 141 341
e 141 426
e 141 471
e 142 28
e 142 67
e 142 90
e 142 92
e 142 173
e 142 379
e 142 411
e 143 51
e 143 125
e 143 150
e 143 197
e 143 214
e 143 313
e 143 334
e 144 69
e 144 116
e 144 187
e 144 295
e 144 371
e 144 455
e 144 500
e 145 15
e 145 140
e 145 142
e 145 199
e 145 264
e 145 343
e 145 438
e 146 14
e 146 91
e 146 129
e 146 132
e 146 203
e 146 217
e 146 440
e 147 14
e 147 72
e 147 139
e 147 184
e 147 258
e 147 305
e 147 347
e 148 41
e 148 226
e 148 227
e 148 422
e 148 473
e 148 475
e 148 496
e 149 135
e 149 146
e 149 159
e 149 226
e 149 357
e 149 383
e 149 453
e 150 104
e 150 112
e 150 340
e 150 384
e 150 447
e 150 449
e 150 473
e 151 43
e 151 162
e 151 175
e 151 217
e 151 326
e 151 340
e 151 409
e 152 14
e 152 97
e 152 268
e 152 286
e 152 295
e 152 331
e 152 345
e 153 20
e 153 151
e 153 258
e 153 293
e 153 333
e 153 361
e 153 421
e 154 31
e 154 136
e 154 280
e 154 296
e 154 377
e 154 454
e 154 491
e 155 54
e 155 71
e 155 99
e 155 108
e 155 242
e 155 438
e 155 477
e 156 41
e 156 50
e 156 84
e 156 85
e 156 301
e 156 302
e 156 493
e 157 89
e 157 110
e 157 236
e 157 264
e 157 440
e 157 441
e 157 497
e 158 24
e 158 107
e 158 165
e 158 210
e 158 252
e 158 305
e 158 374
e 159 31
e 159 166
e 159 197
e 159 205
e 159 252
e 159 340
e 159 350
e 160 48
e 160 80
e 160 92
e 160 126
e 160 207
e 160 303
e 160 487
e 161 62
e 161 132
e 161 238
e 161 408
e 161 420
e 161 432
e 161 485
e 162 29
e 162 44
e 162 54
e 162 194
e 162 320
e 162 428
e 162 495
e 163 82
e 163 124
e 163 140
e 163 144
e 163 188
e 163 269
e 163 395
e 164 99
e 164 181
e 164 206
e 164 321
e 164 395
e 164 439
e 164 489
e 165 19
e 165 99
e 165 196
e 165 253
e 165 417
e 165 464
e 165 487
e 166 6
e 166 11
e 166 23
e 166 67
e 166 99
e 166 143
e 166 180
e 167 189
e 167 298
e 167 354
e 167 426
e 167 467
e 167 473
e 167 479
e 168 17
e 168 48
e 168 87
e 168 249
e 168 273
e 168 289
e 168 413
e 169 54
e 169 93
e 169 160
e 169 198
e 169 378
e 169 401
e 169 433
e 170 4
e 170 36
e 170 50
e 170 108
e 170 452
e 170 477
e 170 499
e 171 4
e 171 155
e 171 326
e 171 335
e 171 362
e 171 407
e 171 462
e 172 116
e 172 134
e 172 264
e 172 285
e 172 293
e 172 298
e 172 429
e 173 15
e 173 61
e 173 101
e 173 186
e 173 333
e 173 382
e 173 398
e 174 98
e 174 229
e 174 314
e 174 330
e 174 350
e 174 380
e 174 409
e 175 86
e 175 135
e 175 200
e 175 266
e 175 276
e 175 317
e 175 415
e 176 117
e 176 127
e 176 130
e 176 319
e 176 393
e 176 431
e 176 487
e 177 16
e 177 70
e 177 253
e 177 280
e 177 367
e 177 396
e 177 410
e 178 27
e 178 114
e 178 121
e 178 277
e 178 334
e 178 348
e 178 429
e 179 63
e 179 101
e 179 130
e 179 183
e 179 264
e 179 287
e 179 301
e 180 9
e 180 45
e 180 276
e 180 329
e 180 398
e 180 417
e 180 483
e 181 19
e 181 41
e 181 66
e 181 148
e 181 295
e 181 321
e 181 327
e 182 47
e 182 63
e 182 103
e 182 135
e 182 354
e 182 409
e 182 500
e 183 35
e 183 59
e 183 187
e 183 304
e 183 308
e 183 343
e 183 433
e 184 97
e 184 311
e 184 316
e 184 335
e 184 370
e 184 427
e 184 485
e 185 197
e 185 217
e 185 226
e 185 325
e 185 383
e 185 452
e 185 466
e 186 38
e 186 103
e 186 188
e 186 273
e 186 344
e 186 362
e 186 362
e 187 89
e 187 121
e 187 346
e 187 361
e 187 380
e 187 442
e 187 482
e 188 129
e 188 136
e 188 163
e 188 209
e 188 294
e 188 425
e 188 430
e 189 164
e 189 180
e 189 312
e 189 371
e 189 443
e 189 467
e 189 497
e 190 1
e 190 16
e 190 215
e 190 235
e 190 291
e 190 333
e 190 488
e 191 134
e 191 194
e 191 317
e 191 340
e 191 381
e 191 451
e 191 495
e 192 182
e 192 214
e 192 294
e 192 355
e 192 383
e 192 445
e 192 476
e 193 71
e 193 239
e 193 252
e 193 312
e 193 324
e 193 374
e 193 452
e 194 169
e 194 182
e 194 184
e 194 314
e 194 385
e 194 466
e 194 500
e 195 15
e 195 36
e 195 216
e 195 270
e 195 347
e 195 465
e 195 478
e 196 73
e 196 86
e 196 108
e 196 124
e 196 241
e 196 392
e 196 412
e 197 52
e 197 58
e 197 88
e 197 282
e 197 294
e 197 337
e 197 440
e 198 97
e 198 115
e 198 121
e 198 139
e 198 372
e 198 372
e 198 419
e 199 35
e 199 68
e 199 158
e 199 198
e 199 265
e 199 301
e 199 384
e 200 68
e 200 175
e 200 336
e 200 419
e 200 434
e 200 458
e 200 491
e 201 24
e 201 30
e 201 94
e 201 133
e 201 191
e 201 293
e 201 450
e 202 130
e 202 141
e 202 148
e 202 310
e 202 336
e 202 350
e 202 423
e 203 26
e 203 44
e 203 250
e 203 256
e 203 267
e 203 340
e 203 469
e 204 53
e 204 154
e 204 221
e 204 261
e 204 437
e 204 458
e 204 493
e 205 41
e 205 184
e 205 222
e 205 288
e 205 327
e 205 484
e 205 498
e 206 128
e 206 170
e 206 170
e 206 171
e 206 228
e 206 229
e 206 379
e 207 21
e 207 64
e 207 161
e 207 222
e 207 299
e 207 384
e 207 420
e 208 12
e 208 117
e 208 224
e 208 268
e 208 293
e 208 383
e 208 391
e 209 36
e 209 54
e 209 64
e 209 109
e 209 269
e 209 357
e 209 363
e 210 10
e 210 161
e 210 199
e 210 304
e 210 377
e 210 396
e 210 469
e 211 4
e 211 58
e 211 174
e 211 174
e 211 228
e 211 255
e 211 388
e 212 45
e 212 220
e 212 324
e 212 397
e 212 430
e 212 443
e 212 482
e 213 13
e 213 210
e 213 248
e 213 281
e 213 355
e 213 356
e 213 447
e 214 135
e 214 243
e 214 260
e 214 264
e 214 282
e 214 367
e 214 474
e 215 139
e 215 172
e 215 323
e 215 400
e 215 402
e 215 414
e 215 459
e 216 91
e 216 162
e 216 256
e 216 281
e 216 340
e 216 423
e 216 485
e 217 1
e 217 1
e 217 72
e 217 104
e 217 321
e 217 424
e 217 453
e 218 5
e 218 13
e 218 51
e 218 260
e 218 308
e 218 443
e 218 453
e 219 26
e 219 118
e 219 137
e 219 159
e 219 164
e 219 359
e 219 395
e 220 61
e 220 91
e 220 115
e 220 127
e 220 209
e 220 438
e 220 474
e 221 121
e 221 249
e 221 284
e 221 364
e 221 366
e 221 410
e 221 422
e 222 5
e 222 287
e 222 333
e 222 334
e 222 401
e 222 431
e 222 459
e 223 70
e 223 128
e 223 132
e 223 268
e 223 357
e 223 369
e 223 411
e 224 5
e 224 106
e 224 129
e 224 342
e 224 375
e 224 447
e 224 459
e 225 11
e 225 166
e 225 167
e 225 368
e 225 402
e 225 490
e 225 491
e 226 1
e 226 200
e 226 206
e 226 230
e 226 233
e 226 239
e 226 427
e 227 18
e 227 63
e 227 333
e 227 349
e 227 390
e 227 458
e 227 462
e 228 39
e 228 70
e 228 129
e 228 135
e 228 170
e 228 308
e 228 498
e 229 19
e 229 48
e 229 86
e 229 140
e 229 281
e 229 393
e 229 471
e 230 34
e 230 43
e 230 173
e 230 208
e 230 244
e 230 255
e 230 401
e 231 22
e 231 51
e 231 156
e 231 191
e 231 221
e 231 289
e 231 486
e 232 85
e 232 135
e 232 141
e 232 148
e 232 326
e 232 462
e 232 484
e 233 21
e 233 64
e 233 131
e 233 143
e 233 192
e 233 195
e 233 270
e 234 39
e 234 55
e 234 143
e 234 239
e 234 321
e 234 431
e 234 493
e 235 35
e 235 95
e 235 147
e 235 186
e 235 281
e 235 309
e 235 423
e 236 23
e 236 46
e 236 145
e 236 209
e 236 285
e 236 303
e 236 356
e 237 88
e 237 103
e 237 129
e 237 158
e 237 236
e 237 426
e 237 493
e 238 31
e 238 49
e 238 50
e 238 175
e 238 297
e 238 341
e 238 487
e 239 13
e 239 52
e 239 83
e 239 90
e 239 155
e 239 449
e 239 457
e 240 58
e 240 66
e 240 77
e 240 89
e 240 373
e 240 429
e 240 483
e 241 6
e 241 140
e 241 195
e 241 221
e 241 298
e 241 338
e 241 465
e 242 15
e 242 24
e 242 56
e 242 237
e 242 283
e 242 283
e 242 370
e 243 16
e 243 61
e 243 225
e 243 300
e 243 354
e 243 385
e 243 418
e 244 145
e 244 211
e 244 237
e 244 243
e 244 255
e 244 293
e 244 351
e 245 24
e 245 112
e 245 142
e 245 159
e 245 165
e 245 222
e 245 412
e 246 70
e 246 261
e 246 276
e 246 291
e 246 403
e 246 411
e 246 456
e 247 90
e 247 148
e 247 224
e 247 282
e 247 417
e 247 440
e 247 459
e 248 12
e 248 18
e 248 175
e 248 186
e 248 307
e 248 376
e 248 402
e 249 67
e 249 77
e 249 170
e 249 266
e 249 378
e 249 477
e 249 479
e 250 37
e 250 128
e 250 135
e 250 162
e 250 334
e 250 404
e 250 407
e 251 71
e 251 198
e 251 261
e 251 298
e 251 317
e 251 340
e 251 500
e 252 9
e 252 37
e 252 68
e 252 268
e 252 278
e 252 487
e 252 487
e 253 38
e 253 137
e 253 137
e 253 194
e 253 436
e 253 447
e 253 467
e 254 27
e 254 41
e 254 97
e 254 213
e 254 220
e 254 368
e 254 435
e 255 96
e 255 118
e 255 132
e 255 175
e 255 214
e 255 303
e 255 451
e 256 26
e 256 131
e 256 152
e 256 191
e 256 209
e 256 243
e 256 352
e 257 162
e 257 170
e 257 177
e 257 263
e 257 296
e 257 435
e 257 448
e 258 64
e 258 136
e 258 181
e 258 295
e 258 321
e 258 352
e 258 432
e 259 189
e 259 298
e 259 362
e 259 401
e 259 436
e 259 475
e 259 497
e 260 53
e 260 70
e 260 115
e 260 313
e 260 402
e 260 417
e 260 429
e 261 3
e 261 40
e 261 83
e 261 126
e 261 183
e 261 278
e 261 434
e 262 124
e 262 152
e 262 236
e 262 291
e 262 422
e 262 450
e 262 461
e 263 3
e 263 129
e 263 171
e 263 230
e 263 300
e 263 447
e 263 448
e 264 14
e 264 29
e 264 50
e 264 90
e 264 300
e 264 377
e 264 489
e 265 3
e 265 64
e 265 195
e 265 260
e 265 267
e 265 485
e 265 491
e 266 37
e 266 72
e 266 210
e 266 239
e 266 244
e 266 277
e 266 385
e 267 40
e 267 185
e 267 201
e 267 219
e 267 276
e 267 336
e 267 491
e 268 91
e 268 251
e 268 282
e 268 363
e 268 427
e 268 429
e 268 451
e 269 80
e 269 242
e 269 259
e 269 265
e 269 354
e 269 379
e 269 445
e 270 106
e 270 135
e 270 212
e 270 237
e 270 258
e 270 463
e 270 478
e 271 35
e 271 66
e 271 96
e 271 143
e 271 211
e 271 259
e 271 473
e 272 108
e 272 133
e 272 250
e 272 266
e 272 377
e 272 377
e 272 468
e 273 59
e 273 83
e 273 102
e 273 161
e 273 262
e 273 303
e 273 464
e 274 15
e 274 39
e 274 126
e 274 228
e 274 297
e 274 434
e 274 459
e 275 55
e 275 160
e 275 170
e 275 334
e 275 408
e 275 428
e 275 431
e 276 219
e 276 261
e 276 294
e 276 302
e 276 314
e 276 468
e 276 496
e 277 30
e 277 132
e 277 187
e 277 213
e 277 336
e 277 393
e 277 444
e 278 8
e 278 14
e 278 104
e 278 129
e 278 163
e 278 314
e 278 354
e 279 52
e 279 97
e 279 111
e 279 142
e 279 200
e 279 322
e 279 357
e 280 70
e 280 91
e 280 196
e 280 355
e 280 390
e 280 415
e 280 482
e 281 9
e 281 183
e 281 205
e 281 227
e 281 237
e 281 305
e 281 370
e 282 188
e 282 234
e 282 296
e 282 358
e 282 365
e 282 415
e 282 458
e 283 65
e 283 211
e 283 224
e 283 225
e 283 239
e 283 252
e 283 468
e 284 127
e 284 194
e 284 326
e 284 335
e 284 402
e 284 433
e 284 446
e 285 48
e 285 90
e 285 307
e 285 367
e 285 395
e 285 457
e 285 495
e 286 249
e 286 285
e 286 296
e 286 304
e 286 327
e 286 341
e 286 361
e 287 74
e 287 149
e 287 156
e 287 196
e 287 291
e 287 341
e 287 383
e 288 6
e 288 68
e 288 90
e 288 105
e 288 364
e 288 367
e 288 447
e 289 162
e 289 236
e 289 269
e 289 291
e 289 291
e 289 318
e 289 409
e 290 56
e 290 94
e 290 102
e 290 145
e 290 252
e 290 315
e 290 411
e 291 89
e 291 152
e 291 222
e 291 292
e 291 436
e 291 448
e 291 449
e 292 114
e 292 152
e 292 182
e 292 201
e 292 276
e 292 330
e 292 457
e 293 61
e 293 165
e 293 335
e 293 343
e 293 402
e 293 450
e 293 459
e 294 44
e 294 73
e 294 165
e 294 234
e 294 312
e 294 456
e 294 470
e 295 43
e 295 137
e 295 141
e 295 257
e 295 281
e 295 360
e 295 497
e 296 11
e 296 42
e 296 259
e 296 298
e 296 347
e 296 376
e 296 429
e 297 57
e 297 126
e 297 251
e 297 295
e 297 386
e 297 425
e 297 464
e 298 56
e 298 72
e 298 254
e 298 320
e 298 325
e 298 381
e 298 443
e 299 31
e 299 145
e 299 160
e 299 204
e 299 220
e 299 368
e 299 397
e 300 95
e 300 146
e 300 230
e 300 247
e 300 287
e 300 371
e 300 451
e 301 9
e 301 78
e 301 199
e 301 287
e 301 306
e 301 353
e 301 359
e 302 14
e 302 155
e 302 208
e 302 231
e 302 345
e 302 422
e 302 448
e 303 108
e 303 159
e 303 201
e 303 230
e 303 259
e 303 338
e 303 379
e 304 8
e 304 54
e 304 176
e 304 180
e 304 211
e 304 273
e 304 457
e 305 127
e 305 303
e 305 309
e 305 397
e 305 403
e 305 405
e 305 441
e 306 87
e 306 106
e 306 107
e 306 124
e 306 305
e 306 447
e 306 486
e 307 2
e 307 138
e 307 140
e 307 252
e 307 334
e 307 411
e 307 449
e 308 1
e 308 70
e 308 109
e 308 151
e 308 272
e 308 393
e 308 400
e 309 57
e 309 185
e 309 288
e 309 329
e 309 382
e 309 389
e 309 463
e 310 219
e 310 248
e 310 260
e 310 346
e 310 424
e 310 452
e 310 484
e 311 15
e 311 158
e 311 183
e 311 196
e 311 308
e 311 362
e 311 473
e 312 39
e 312 58
e 312 130
e 312 131
e 312 245
e 312 295
e 312 412
e 313 79
e 313 79
e 313 127
e 313 129
e 313 138
e 313 172
e 313 261
e 314 142
e 314 166
e 314 185
e 314 187
e 314 326
e 314 366
e 314 383
e 315 124
e 315 140
e 315 334
e 315 339
e 315 349
e 315 359
e 315 445
e 316 56
e 316 90
e 316 98
e 316 145
e 316 284
e 316 311
e 316 486
e 317 43
e 317 56
e 317 115
e 317 247
e 317 301
e 317 394
e 317 413
e 318 50
e 318 51
e 318 121
e 318 290
e 318 402
e 318 429
e 318 451
e 319 43
e 319 57
e 319 238
e 319 242
e 319 254
e 319 415
e 319 425
e 320 55
e 320 55
e 320 110
e 320 159
e 320 247
e 320 265
e 320 459
e 321 119
e 321 217
e 321 261
e 321 282
e 321 297
e 321 320
e 321 500
e 322 7
e 322 264
e 322 264
e 322 288
e 322 306
e 322 319
e 322 400
e 323 112
e 323 130
e 323 202
e 323 278
e 323 329
e 323 440
e 323 471
e 324 13
e 324 56
e 324 184
e 324 187
e 324 280
e 324 303
e 324 418
e 325 90
e 325 90
e 325 218
e 325 238
e 325 248
e 325 354
e 325 480
e 326 25
e 326 64
e 326 212
e 326 285
e 326 381
e 326 496
e 326 500
e 327 43
e 327 101
e 327 115
e 327 133
e 327 144
e 327 212
e 327 285
e 328 97
e 328 108
e 328 219
e 328 226
e 328 262
e 328 366
e 328 442
e 329 211
e 329 232
e 329 264
e 329 287
e 329 395
e 329 395
e 329 486
e 330 59
e 330 83
e 330 118
e 330 336
e 330 337
e 330 338
e 330 484
e 331 54
e 331 118
e 331 214
e 331 315
e 331 316
e 331 428
e 331 499
e 332 7
e 332 36
e 332 65
e 332 142
e 332 181
e 332 274
e 332 281
e 333 24
e 333 79
e 333 132
e 333 139
e 333 210
e 333 243
e 333 253
e 334 34
e 334 46
e 334 72
e 334 257
e 334 325
e 334 326
e 334 464
e 335 3
e 335 81
e 335 283
e 335 407
e 335 486
e 335 490
e 335 492
e 336 44
e 336 45
e 336 157
e 336 162
e 336 175
e 336 389
e 336 471
e 337 19
e 337 103
e 337 239
e 337 342
e 337 349
e 337 364
e 337 380
e 338 43
e 338 251
e 338 267
e 338 285
e 338 339
e 338 443
e 338 474
e 339 97
e 339 136
e 339 282
e 339 425
e 339 460
e 339 462
e 339 489
e 340 99
e 340 114
e 340 133
e 340 207
e 340 348
e 340 357
e 340 436
e 341 41
e 341 111
e 341 203
e 341 245
e 341 258
e 341 455
e 341 463
e 342 172
e 342 300
e 342 387
e 342 393
e 342 433
e 342 441
e 342 452
e 343 40
e 343 55
e 343 285
e 343 290
e 343 405
e 343 447
e 343 490
e 344 44
e 344 83
e 344 273
e 344 351
e 344 369
e 344 413
e 344 487
e 345 127
e 345 158
e 345 177
e 345 193
e 345 254
e 345 319
e 345 320
e 346 120
e 346 216
e 346 270
e 346 355
e 346 376
e 346 426
e 346 464
e 347 9
e 347 96
e 347 181
e 347 210
e 347 210
e 347 233
e 347 378
e 348 1
e 348 23
e 348 321
e 348 332
e 348 401
e 348 414
e 348 447
e 349 30
e 349 229
e 349 251
e 349 257
e 349 265
e 349 425
e 349 457
e 350 57
e 350 119
e 350 245
e 350 273
e 350 295
e 350 305
e 350 449
e 351 120
e 351 146
e 351 148
e 351 194
e 351 268
e 351 373
e 351 440
e 352 29
e 352 210
e 352 255
e 352 271
e 352 349
e 352 351
e 352 416
e 353 32
e 353 149
e 353 230
e 353 311
e 353 351
e 353 356
e 353 360
e 354 69
e 354 143
e 354 178
e 354 343
e 354 407
e 354 455
e 354 489
e 355 9
e 355 199
e 355 299
e 355 304
e 355 370
e 355 471
e 355 488
e 356 4
e 356 108
e 356 212
e 356 227
e 356 325
e 356 441
e 356 470
e 357 27
e 357 65
e 357 69
e 357 187
e 357 272
e 357 289
e 357 317
e 358 28
e 358 42
e 358 60
e 358 63
e 358 79
e 358 123
e 358 377
e 359 24
e 359 227
e 359 266
e 359 400
e 359 405
e 359 439
e 359 468
e 360 33
e 360 111
e 360 177
e 360 188
e 360 189
e 360 359
e 360 409
e 361 52
e 361 192
e 361 231
e 361 240
e 361 243
e 361 295
e 361 373
e 362 23
e 362 145
e 362 260
e 362 281
e 362 307
e 362 493
e 362 494
e 363 10
e 363 143
e 363 329
e 363 387
e 363 399
e 363 450
e 363 477
e 364 92
e 364 127
e 364 139
e 364 150
e 364 203
e 364 388
e 364 459
e 365 147
e 365 169
e 365 182
e 365 221
e 365 233
e 365 429
e 365 459
e 366 15
e 366 63
e 366 159
e 366 175
e 366 240
e 366 269
e 366 415
e 367 55
e 367 157
e 367 236
e 367 258
e 367 316
e 367 335
e 367 437
e 368 8
e 368 28
e 368 47
e 368 136
e 368 161
e 368 465
e 368 484
e 369 34
e 369 38
e 369 56
e 369 204
e 369 302
e 369 343
e 369 349
e 370 150
e 370 184
e 370 217
e 370 271
e 370 301
e 370 369
e 370 447
e 371 122
e 371 160
e 371 222
e 371 304
e 371 351
e 371 388
e 371 438
e 372 43
e 372 44
e 372 211
e 372 276
e 372 278
e 372 336
e 372 463
e 373 62
e 373 98
e 373 371
e 373 387
e 373 394
e 373 418
e 373 480
e 374 118
e 374 229
e 374 267
e 374 325
e 374 359
e 374 460
e 374 472
e 375 58
e 375 110
e 375 187
e 375 260
e 375 394
e 375 406
e 375 467
e 376 31
e 376 47
e 376 203
e 376 336
e 376 418
e 376 460
e 376 496
e 377 24
e 377 97
e 377 208
e 377 217
e 377 314
e 377 375
e 377 493
e 378 7
e 378 164
e 378 261
e 378 307
e 378 372
e 378 395
e 378 404
e 379 50
e 379 235
e 379 318
e 379 340
e 379 353
e 379 362
e 379 435
e 380 5
e 380 6
e 380 316
e 380 319
e 380 394
e 380 405
e 380 443
e 381 5
e 381 188
e 381 193
e 381 303
e 381 326
e 381 414
e 381 445
e 382 27
e 382 102
e 382 249
e 382 257
e 382 328
e 382 362
e 382 438
e 383 51
e 383 55
e 383 132
e 383 297
e 383 310
e 383 440
e 383 446
e 384 3
e 384 33
e 384 127
e 384 181
e 384 312
e 384 335
e 384 413
e 385 30
e 385 53
e 385 61
e 385 158
e 385 162
e 385 204
e 385 347
e 386 54
e 386 251
e 386 253
e 386 279
e 386 372
e 386 428
e 386 441
e 387 11
e 387 49
e 387 58
e 387 85
e 387 112
e 387 149
e 387 496
e 388 14
e 388 55
e 388 162
e 388 278
e 388 327
e 388 338
e 388 364
e 389 4
e 389 75
e 389 255
e 389 255
e 389 325
e 389 327
e 389 343
e 390 140
e 390 226
e 390 265
e 390 278
e 390 343
e 390 379
e 390 418
e 391 76
e 391 155
e 391 205
e 391 205
e 391 328
e 391 381
e 391 403
e 392 124
e 392 161
e 392 201
e 392 291
e 392 301
e 392 447
e 392 495
e 393 120
e 393 143
e 393 149
e 393 150
e 393 197
e 393 489
e 393 491
e 394 152
e 394 194
e 394 255
e 394 326
e 394 331
e 394 413
e 394 449
e 395 88
e 395 125
e 395 361
e 395 383
e 395 389
e 395 430
e 395 460
e 396 107
e 396 168
e 396 174
e 396 184
e 396 287
e 396 338
e 396 403
e 397 35
e 397 47
e 397 110
e 397 131
e 397 131
e 397 137
e 397 310
e 398 71
e 398 126
e 398 158
e 398 170
e 398 174
e 398 232
e 398 452
e 399 65
e 399 86
e 399 159
e 399 265
e 399 328
e 399 340
e 399 484
e 400 4
e 400 53
e 400 84
e 400 177
e 400 369
e 400 433
e 400 487
e 401 38
e 401 305
e 401 320
e 401 328
e 401 431
e 401 467
e 401 468
e 402 72
e 402 118
e 402 134
e 402 276
e 402 293
e 402 295
e 402 479
e 403 74
e 403 139
e 403 148
e 403 208
e 403 256
e 403 373
e 403 401
e 404 68
e 404 158
e 404 160
e 404 278
e 404 351
e 404 394
e 404 493
e 405 348
e 405 403
e 405 432
e 405 441
e 405 458
e 405 461
e 405 479
e 406 27
e 406 212
e 406 245
e 406 362
e 406 399
e 406 426
e 406 493
e 407 88
e 407 161
e 407 272
e 407 291
e 407 322
e 407 369
e 407 478
e 408 87
e 408 188
e 408 280
e 408 281
e 408 288
e 408 345
e 408 380
e 409 110
e 409 114
e 409 125
e 409 364
e 409 429
e 409 437
e 409 500
e 410 28
e 410 67
e 410 193
e 410 230
e 410 260
e 410 459
e 410 475
e 411 161
e 411 272
e 411 330
e 411 336
e 411 374
e 411 386
e 411 485
e 412 125
e 412 159
e 412 204
e 412 216
e 412 283
e 412 285
e 412 446
e 413 1
e 413 4
e 413 43
e 413 89
e 413 162
e 413 248
e 413 369
e 414 1
e 414 72
e 414 132
e 414 156
e 414 292
e 414 437
e 414 463
e 415 18
e 415 102
e 415 139
e 415 188
e 415 218
e 415 459
e 415 477
e 416 73
e 416 141
e 416 200
e 416 271
e 416 300
e 416 328
e 416 435
e 417 99
e 417 111
e 417 197
e 417 221
e 417 383
e 417 452
e 417 495
e 418 54
e 418 83
e 418 303
e 418 348
e 418 393
e 418 454
e 418 461
e 419 92
e 419 115
e 419 153
e 419 155
e 419 237
e 419 356
e 419 487
e 420 29
e 420 39
e 420 161
e 420 435
e 420 445
e 420 484
e 420 489
e 421 35
e 421 38
e 421 45
e 421 46
e 421 108
e 421 423
e 421 490
e 422 36
e 422 107
e 422 150
e 422 156
e 422 248
e 422 366
e 422 497
e 423 3
e 423 84
e 423 198
e 423 239
e 423 351
e 423 404
e 423 432
e 424 22
e 424 56
e 424 72
e 424 206
e 424 336
e 424 351
e 424 393
e 425 191
e 425 192
e 425 412
e 425 440
e 425 484
e 425 489
e 425 496
e 426 227
e 426 258
e 426 303
e 426 324
e 426 337
e 426 348
e 426 359
e 427 92
e 427 109
e 427 121
e 427 151
e 427 191
e 427 255
e 427 466
e 428 58
e 428 123
e 428 144
e 428 362
e 428 389
e 428 391
e 428 459
e 429 41
e 429 142
e 429 241
e 429 269
e 429 296
e 429 298
e 429 445
e 430 54
e 430 224
e 430 258
e 430 330
e 430 342
e 430 345
e 430 376
e 431 11
e 431 34
e 431 59
e 431 153
e 431 260
e 431 317
e 431 358
e 432 41
e 432 301
e 432 328
e 432 351
e 432 466
e 432 471
e 432 473
e 433 39
e 433 81
e 433 172
e 433 211
e 433 275
e 433 281
e 433 332
e 434 20
e 434 20
e 434 62
e 434 168
e 434 264
e 434 400
e 434 480
e 435 13
e 435 84
e 435 247
e 435 255
e 435 306
e 435 418
e 435 470
e 436 7
e 436 29
e 436 88
e 436 197
e 436 263
e 436 296
e 436 451
e 437 55
e 437 130
e 437 139
e 437 167
e 437 257
e 437 430
e 437 478
e 438 56
e 438 70
e 438 109
e 438 219
e 438 297
e 438 388
e 438 430
e 439 8
e 439 101
e 439 112
e 439 216
e 439 219
e 439 238
e 439 379
e 440 119
e 440 129
e 440 306
e 440 309
e 440 336
e 440 383
e 440 391
e 441 70
e 441 186
e 441 258
e 441 318
e 441 382
e 441 423
e 441 488
e 442 124
e 442 134
e 442 208
e 442 337
e 442 380
e 442 390
e 442 400
e 443 11
e 443 28
e 443 108
e 443 119
e 443 174
e 443 216
e 443 457
e 444 75
e 444 131
e 444 305
e 444 363
e 444 409
e 444 413
e 444 477
e 445 47
e 445 56
e 445 82
e 445 207
e 445 220
e 445 340
e 445 457
e 446 9
e 446 129
e 446 198
e 446 213
e 446 266
e 446 307
e 446 398
e 447 30
e 447 80
e 447 131
e 447 162
e 447 173
e 447 404
e 447 473
e 448 92
e 448 132
e 448 153
e 448 157
e 448 284
e 448 378
e 448 419
e 449 52
e 449 70
e 449 329
e 449 353
e 449 371
e 449 445
e 449 473
e 450 27
e 450 31
e 450 73
e 450 124
e 450 278
e 450 285
e 450 476
e 451 95
e 451 108
e 451 250
e 451 260
e 451 280
e 451 485
e 451 492
e 452 3
e 452 75
e 452 236
e 452 287
e 452 310
e 452 474
e 452 482
e 453 2
e 453 21
e 453 238
e 453 273
e 453 324
e 453 367
e 453 375
e 454 112
e 454 168
e 454 308
e 454 316
e 454 348
e 454 444
e 454 446
e 455 87
e 455 118
e 455 144
e 455 194
e 455 205
e 455 281
e 455 323
e 456 9
e 456 35
e 456 92
e 456 108
e 456 290
e 456 299
e 456 397
e 457 117
e 457 151
e 457 194
e 457 263
e 457 268
e 457 318
e 457 370
e 458 73
e 458 241
e 458 242
e 458 260
e 458 355
e 458 388
e 458 487
e 459 39
e 459 39
e 459 206
e 459 224
e 459 243
e 459 387
e 459 447
e 460 90
e 460 183
e 460 251
e 460 264
e 460 315
e 460 368
e 460 482
e 461 117
e 461 125
e 461 231
e 461 266
e 461 366
e 461 422
e 461 468
e 462 21
e 462 59
e 462 92
e 462 290
e 462 326
e 462 407
e 462 442
e 463 91
e 463 141
e 463 180
e 463 229
e 463 252
e 463 332
e 463 489
e 464 198
e 464 292
e 464 314
e 464 342
e 464 353
e 464 360
e 464 470
e 465 128
e 465 167
e 465 201
e 465 233
e 465 387
e 465 417
e 465 496
e 466 2
e 466 80
e 466 312
e 466 315
e 466 339
e 466 386
e 466 474
e 467 74
e 467 338
e 467 358
e 467 388
e 467 397
e 467 419
e 467 478
e 468 105
e 468 194
e 468 208
e 468 272
e 468 346
e 468 363
e 468 426
e 469 49
e 469 100
e 469 106
e 469 136
e 469 247
e 469 406
e 469 450
e 470 40
e 470 40
e 470 73
e 470 154
e 470 277
e 470 282
e 470 374
e 471 23
e 471 65
e 471 92
e 471 92
e 471 131
e 471 278
e 471 382
e 472 27
e 472 70
e 472 109
e 472 152
e 472 256
e 472 361
e 472 452
e 473 78
e 473 182
e 473 193
e 473 235
e 473 241
e 473 416
e 473 434
e 474 70
e 474 147
e 474 371
e 474 390
e 474 397
e 474 440
e 474 483
e 475 20
e 475 24
e 475 162
e 475 195
e 475 271
e 475 415
e 475 476
e 476 6
e 476 70
e 476 105
e 476 196
e 476 241
e 476 422
e 476 439
e 477 56
e 477 70
e 477 177
e 477 178
e 477 181
e 477 203
e 477 430
e 478 82
e 478 110
e 478 258
e 478 267
e 478 297
e 478 439
e 478 500
e 479 3
e 479 180
e 479 225
e 479 250
e 479 326
e 479 371
e 479 459
e 480 147
e 480 159
e 480 162
e 480 248
e 480 348
e 480 373
e 480 417
e 481 17
e 481 19
e 481 78
e 481 375
e 481 441
e 481 452
e 481 499
e 482 69
e 482 117
e 482 297
e 482 350
e 482 438
e 482 467
e 482 497
e 483 22
e 483 170
e 483 197
e 483 349
e 483 367
e 483 406
e 483 467
e 484 27
e 484 54
e 484 106
e 484 252
e 484 278
e 484 376
e 484 434
e 485 89
e 485 138
e 485 173
e 485 273
e 485 331
e 485 426
e 485 430
e 486 19
e 486 77
e 486 136
e 486 387
e 486 427
e 486 444
e 486 462
e 487 113
e 487 197
e 487 290
e 487 324
e 487 371
e 487 402
e 487 495
e 488 19
e 488 163
e 488 333
e 488 359
e 488 364
e 488 397
e 488 425
e 489 19
e 489 121
e 489 141
e 489 157
e 489 348
e 489 393
e 489 436
e 490 5
e 490 44
e 490 154
e 490 223
e 490 326
e 490 401
e 490 484
e 491 2
e 491 379
e 491 388
e 491 409
e 491 448
e 491 451
e 491 499
e 492 33
e 492 63
e 492 152
e 492 163
e 492 234
e 492 305
e 492 352
e 493 51
e 493 116
e 493 244
e 493 327
e 493 348
e 493 367
e 493 403
e 494 230
e 494 299
e 494 338
e 494 369
e 494 451
e 494 459
e 494 499
e 495 13
e 495 77
e 495 169
e 495 305
e 495 309
e 495 399
e 495 470
e 496 109
e 496 164
e 496 204
e 496 256
e 496 348
e 496 350
e 496 379
e 497 152
e 497 178
e 497 210
e 497 212
e 497 237
e 497 265
e 497 416
e 498 113
e 498 115
e 498 179
e 498 211
e 498 221
e 498 291
e 498 355
e 499 108
e 499 169
e 499 271
e 499 440
e 499 442
e 499 450
e 499 472
e 500 76
e 500 118
e 500 190
e 500 190
e 500 305
e 500 441
e 500 494
